(set-logic QF_UF)
(declare-fun A0 () Bool)
(declare-fun A1 () Bool)
(declare-fun A2 () Bool)
(declare-fun A3 () Bool)
(declare-fun A4 () Bool)
(declare-fun A5 () Bool)
(declare-fun A6 () Bool)
(declare-fun A7 () Bool)
(declare-fun A8 () Bool)
(declare-fun A9 () Bool)
(declare-fun A10 () Bool)
(declare-fun A11 () Bool)
(declare-fun A14 () Bool)
(declare-fun A15 () Bool)
(declare-fun A16 () Bool)
(declare-fun A17 () Bool)
(declare-fun A19 () Bool)
(declare-fun A20 () Bool)
(declare-fun A21 () Bool)
(declare-fun A22 () Bool)
(declare-fun A23 () Bool)
(declare-fun A24 () Bool)
(assert (let ((.def_0 (not A5))) (let ((.def_1 (not A4))) (let ((.def_2 (and .def_1 .def_0))) (let ((.def_3 (not A6))) (let ((.def_4 (and .def_3 A8))) (let ((.def_5 (not .def_4))) (let ((.def_6 (and .def_5 .def_2))) (let ((.def_7 (= A14 A2))) (let ((.def_8 (and A4 A22))) (let ((.def_9 (or .def_8 .def_7))) (let ((.def_10 (or .def_9 .def_6))) (let ((.def_11 (not .def_10))) (let ((.def_12 (not A21))) (let ((.def_13 (and .def_12 A17))) (let ((.def_14 (and A21 A14))) (let ((.def_15 (or .def_14 .def_13))) (let ((.def_16 (not .def_15))) (let ((.def_17 (not A14))) (let ((.def_18 (and A7 .def_17))) (let ((.def_19 (not A19))) (let ((.def_20 (= .def_19 A5))) (let ((.def_21 (and .def_20 .def_18))) (let ((.def_22 (or .def_21 .def_16))) (let ((.def_23 (or .def_22 .def_11))) (let ((.def_24 (not A15))) (let ((.def_25 (and .def_24 A11))) (let ((.def_26 (not .def_25))) (let ((.def_27 (and A19 A5))) (let ((.def_28 (not .def_27))) (let ((.def_29 (and .def_28 .def_26))) (let ((.def_30 (not .def_29))) (let ((.def_31 (and .def_3 A4))) (let ((.def_32 (not A7))) (let ((.def_33 (and .def_32 .def_24))) (let ((.def_34 (and .def_33 .def_31))) (let ((.def_35 (not .def_34))) (let ((.def_36 (= .def_35 .def_30))) (let ((.def_37 (not A1))) (let ((.def_38 (and .def_3 .def_37))) (let ((.def_39 (not .def_38))) (let ((.def_40 (not A22))) (let ((.def_41 (and .def_32 .def_40))) (let ((.def_42 (and .def_41 .def_39))) (let ((.def_43 (not A9))) (let ((.def_44 (not A3))) (let ((.def_45 (or .def_44 .def_43))) (let ((.def_46 (not .def_45))) (let ((.def_47 (not A0))) (let ((.def_48 (and A1 .def_47))) (let ((.def_49 (or .def_48 .def_46))) (let ((.def_50 (not .def_49))) (let ((.def_51 (and .def_50 .def_42))) (let ((.def_52 (and .def_51 .def_36))) (let ((.def_53 (not .def_52))) (let ((.def_54 (or .def_53 .def_23))) (let ((.def_55 (not .def_54))) (let ((.def_56 (not A24))) (let ((.def_57 (not A8))) (let ((.def_58 (= .def_57 .def_56))) (let ((.def_59 (not .def_58))) (let ((.def_60 (and A19 .def_32))) (let ((.def_61 (and .def_60 .def_59))) (let ((.def_62 (not .def_61))) (let ((.def_63 (and A6 A0))) (let ((.def_64 (not .def_63))) (let ((.def_65 (and .def_32 A23))) (let ((.def_66 (not .def_65))) (let ((.def_67 (and .def_66 .def_64))) (let ((.def_68 (not .def_67))) (let ((.def_69 (or .def_68 .def_62))) (let ((.def_70 (not .def_69))) (let ((.def_71 (not A23))) (let ((.def_72 (and .def_24 .def_71))) (let ((.def_73 (not .def_72))) (let ((.def_74 (or .def_57 A1))) (let ((.def_75 (not .def_74))) (let ((.def_76 (or .def_75 .def_73))) (let ((.def_77 (or .def_17 A20))) (let ((.def_78 (not .def_77))) (let ((.def_79 (or A20 .def_37))) (let ((.def_80 (not .def_79))) (let ((.def_81 (and .def_80 .def_78))) (let ((.def_82 (and .def_81 .def_76))) (let ((.def_83 (and .def_82 .def_70))) (let ((.def_84 (not .def_83))) (let ((.def_85 (and A6 A6))) (let ((.def_86 (or .def_56 .def_32))) (let ((.def_87 (or .def_86 .def_85))) (let ((.def_88 (not .def_87))) (let ((.def_89 (not A10))) (let ((.def_90 (or .def_89 .def_3))) (let ((.def_91 (not .def_90))) (let ((.def_92 (and A22 A0))) (let ((.def_93 (not .def_92))) (let ((.def_94 (or .def_93 .def_91))) (let ((.def_95 (not .def_94))) (let ((.def_96 (or .def_95 .def_88))) (let ((.def_97 (= A3 A11))) (let ((.def_98 (not .def_97))) (let ((.def_99 (or A19 .def_47))) (let ((.def_100 (not .def_99))) (let ((.def_101 (or .def_100 .def_98))) (let ((.def_102 (not .def_101))) (let ((.def_103 (= A16 .def_44))) (let ((.def_104 (or .def_89 .def_19))) (let ((.def_105 (or .def_104 .def_103))) (let ((.def_106 (and .def_105 .def_102))) (let ((.def_107 (not .def_106))) (let ((.def_108 (and .def_107 .def_96))) (let ((.def_109 (not .def_108))) (let ((.def_110 (and .def_109 .def_84))) (let ((.def_111 (and .def_110 .def_55))) (let ((.def_112 (not .def_111))) .def_112))))))))))))))))))))))))))))))))))))))))))))))))))))))))))))))))))))))))))))))))))))))))))))))))))))))))))))))))))
(check-sat)
